PatchBench/BenchmarksExist/linux/CWE-189-Numeric-Errors/CVE_2012_0038_fa8b18edd752a8b4e9d1ee2cd615b82c93cf8bba/xfs_acl_from_disk_SnippetExist32.smt2
; benchmark generated from python API
(set-info :status unknown)
(declare-fun rdi () (_ BitVec 32))
(assert
 (let (($x37 (bvsle rdi (_ bv25 32))))
 (let (($x179 (or $x37 (and (not $x37) (= rdi (_ bv4294967161 32))))))
 (and $x179))))
(check-sat)
